c generated by sgen
c see http://www.cs.qub.ac.uk/~i.spence/sgen
p cnf 81 172
-2 -3 -4 0
-1 -3 -4 0
-1 -2 -4 0
-1 -2 -3 0
-6 -7 -8 0
-5 -7 -8 0
-5 -6 -8 0
-5 -6 -7 0
-10 -11 -12 0
-9 -11 -12 0
-9 -10 -12 0
-9 -10 -11 0
-14 -15 -16 0
-13 -15 -16 0
-13 -14 -16 0
-13 -14 -15 0
-18 -19 -20 0
-17 -19 -20 0
-17 -18 -20 0
-17 -18 -19 0
-22 -23 -24 0
-21 -23 -24 0
-21 -22 -24 0
-21 -22 -23 0
-26 -27 -28 0
-25 -27 -28 0
-25 -26 -28 0
-25 -26 -27 0
-30 -31 -32 0
-29 -31 -32 0
-29 -30 -32 0
-29 -30 -31 0
-34 -35 -36 0
-33 -35 -36 0
-33 -34 -36 0
-33 -34 -35 0
-38 -39 -40 0
-37 -39 -40 0
-37 -38 -40 0
-37 -38 -39 0
-42 -43 -44 0
-41 -43 -44 0
-41 -42 -44 0
-41 -42 -43 0
-46 -47 -48 0
-45 -47 -48 0
-45 -46 -48 0
-45 -46 -47 0
-50 -51 -52 0
-49 -51 -52 0
-49 -50 -52 0
-49 -50 -51 0
-54 -55 -56 0
-53 -55 -56 0
-53 -54 -56 0
-53 -54 -55 0
-58 -59 -60 0
-57 -59 -60 0
-57 -58 -60 0
-57 -58 -59 0
-62 -63 -64 0
-61 -63 -64 0
-61 -62 -64 0
-61 -62 -63 0
-66 -67 -68 0
-65 -67 -68 0
-65 -66 -68 0
-65 -66 -67 0
-70 -71 -72 0
-69 -71 -72 0
-69 -70 -72 0
-69 -70 -71 0
-74 -75 -76 0
-73 -75 -76 0
-73 -74 -76 0
-73 -74 -75 0
-77 -78 -79 0
-77 -78 -80 0
-77 -78 -81 0
-77 -79 -80 0
-77 -79 -81 0
-77 -80 -81 0
-78 -79 -80 0
-78 -79 -81 0
-78 -80 -81 0
-79 -80 -81 0
45 14 72 0
11 14 72 0
11 45 72 0
11 45 14 0
70 61 23 0
55 61 23 0
55 70 23 0
55 70 61 0
3 78 6 0
64 78 6 0
64 3 6 0
64 3 78 0
50 60 21 0
29 60 21 0
29 50 21 0
29 50 60 0
81 41 35 0
52 41 35 0
52 81 35 0
52 81 41 0
32 71 25 0
77 71 25 0
77 32 25 0
77 32 71 0
18 30 34 0
54 30 34 0
54 18 34 0
54 18 30 0
13 49 4 0
17 49 4 0
17 13 4 0
17 13 49 0
36 1 22 0
46 1 22 0
46 36 22 0
46 36 1 0
5 43 47 0
66 43 47 0
66 5 47 0
66 5 43 0
73 67 80 0
56 67 80 0
56 73 80 0
56 73 67 0
24 74 38 0
7 74 38 0
7 24 38 0
7 24 74 0
8 20 75 0
28 20 75 0
28 8 75 0
28 8 20 0
57 26 15 0
44 26 15 0
44 57 15 0
44 57 26 0
48 31 76 0
62 31 76 0
62 48 76 0
62 48 31 0
9 79 19 0
58 79 19 0
58 9 19 0
58 9 79 0
53 37 42 0
10 37 42 0
10 53 42 0
10 53 37 0
2 69 39 0
59 69 39 0
59 2 39 0
59 2 69 0
16 33 40 0
68 33 40 0
68 16 40 0
68 16 33 0
65 27 51 0
65 27 63 0
65 27 12 0
65 51 63 0
65 51 12 0
65 63 12 0
27 51 63 0
27 51 12 0
27 63 12 0
51 63 12 0
